Geographic Exponential Decay
40 317 137 59 292 123 16 108 119 10 77 216 124 195 1 131 136 182 178 291 259 150 96 307 117 256 240 274 126 276 47 211 260 318 155 207 309 51 164 75 306
p edge 320 1301
e 0 182 69.0
e 0 141 1.0
e 1 243 65.0
e 1 271 86.0
e 1 169 24.0
e 1 266 55.0
e 1 245 75.0
e 1 89 58.0
e 1 168 49.0
e 1 233 85.0
e 1 2 88.0
e 1 289 20.0
e 1 170 89.0
e 1 142 87.0
e 1 59 12.0
e 1 104 53.0
e 1 256 65.0
e 1 253 100.0
e 1 215 86.0
e 1 315 35.0
e 1 258 63.0
e 1 28 64.0
e 1 131 27.0
e 1 178 50.0
e 1 49 20.0
e 1 27 71.0
e 1 257 80.0
e 1 8 20.0
e 1 155 16.0
e 3 95 1.0
e 4 299 19.0
e 5 296 1.0
e 6 234 18.0
e 7 213 4.0
e 8 161 1.0
e 8 29 8.0
e 8 167 5.0
e 9 110 4.0
e 9 111 19.0
e 9 302 32.0
e 9 146 16.0
e 9 170 6.0
e 9 106 14.0
e 9 219 25.0
e 9 257 12.0
e 9 37 28.0
e 9 191 38.0
e 9 15 10.0
e 9 169 28.0
e 9 65 13.0
e 9 117 70.0
e 10 69 60.0
e 10 246 72.0
e 10 218 18.0
e 10 61 61.0
e 10 275 75.0
e 10 107 97.0
e 10 292 55.0
e 10 256 17.0
e 10 155 17.0
e 10 204 33.0
e 10 28 50.0
e 10 67 62.0
e 10 221 58.0
e 10 267 59.0
e 10 160 81.0
e 10 48 29.0
e 10 220 53.0
e 10 197 20.0
e 10 315 72.0
e 10 176 4.0
e 10 30 18.0
e 10 297 10.0
e 10 157 35.0
e 10 307 86.0
e 10 248 74.0
e 10 91 65.0
e 10 232 100.0
e 11 43 1.0
e 12 183 5.0
e 12 151 4.0
e 13 78 1.0
e 14 288 10.0
e 14 64 19.0
e 14 162 10.0
e 14 289 22.0
e 14 317 40.0
e 14 170 20.0
e 14 206 15.0
e 15 90 2.0
e 16 65 30.0
e 16 182 54.0
e 16 225 1.0
e 16 309 76.0
e 16 252 59.0
e 16 31 29.0
e 16 106 54.0
e 16 283 80.0
e 16 100 14.0
e 16 144 6.0
e 16 163 37.0
e 16 90 58.0
e 16 301 76.0
e 16 161 97.0
e 16 253 33.0
e 16 199 72.0
e 16 180 59.0
e 16 226 18.0
e 16 261 24.0
e 16 271 40.0
e 16 117 22.0
e 16 165 43.0
e 16 176 24.0
e 16 282 43.0
e 16 46 93.0
e 16 36 26.0
e 16 205 8.0
e 17 232 5.0
e 17 201 1.0
e 18 138 4.0
e 18 262 7.0
e 18 72 4.0
e 18 172 1.0
e 19 196 5.0
e 20 64 5.0
e 21 106 1.0
e 21 303 5.0
e 22 119 87.0
e 23 145 1.0
e 24 249 1.0
e 25 278 5.0
e 25 94 19.0
e 26 12 1.0
e 27 56 6.0
e 32 174 2.0
e 33 137 58.0
e 33 306 58.0
e 33 233 8.0
e 33 166 11.0
e 33 308 22.0
e 33 54 3.0
e 33 60 8.0
e 34 61 1.0
e 35 203 1.0
e 35 261 3.0
e 37 157 1.0
e 38 203 1.0
e 38 174 2.0
e 39 221 1.0
e 40 119 34.0
e 41 148 5.0
e 41 202 2.0
e 42 132 11.0
e 44 54 6.0
e 45 109 1.0
e 46 97 1.0
e 47 217 99.0
e 47 28 26.0
e 47 13 26.0
e 47 70 41.0
e 47 234 7.0
e 47 215 94.0
e 47 293 64.0
e 47 227 54.0
e 47 117 14.0
e 47 201 46.0
e 47 295 34.0
e 47 71 48.0
e 47 113 67.0
e 47 14 47.0
e 47 267 79.0
e 47 61 21.0
e 47 30 44.0
e 47 157 39.0
e 47 99 66.0
e 47 27 36.0
e 47 271 90.0
e 47 257 70.0
e 47 56 54.0
e 47 42 53.0
e 47 65 46.0
e 47 153 92.0
e 47 26 74.0
e 48 172 10.0
e 48 151 18.0
e 48 123 24.0
e 48 249 1.0
e 48 149 25.0
e 48 191 14.0
e 49 141 5.0
e 50 304 2.0
e 51 25 90.0
e 51 121 70.0
e 51 198 29.0
e 51 26 100.0
e 51 262 59.0
e 51 52 38.0
e 51 197 98.0
e 51 304 57.0
e 51 299 100.0
e 51 28 78.0
e 51 116 5.0
e 51 83 12.0
e 51 76 62.0
e 51 8 84.0
e 51 232 25.0
e 51 246 11.0
e 51 95 95.0
e 51 181 22.0
e 51 6 66.0
e 51 13 17.0
e 51 225 51.0
e 51 113 100.0
e 51 50 88.0
e 51 286 75.0
e 51 182 69.0
e 51 133 7.0
e 51 260 22.0
e 52 227 5.0
e 52 245 10.0
e 52 233 17.0
e 52 156 13.0
e 52 288 15.0
e 52 174 9.0
e 53 122 13.0
e 53 315 12.0
e 53 261 16.0
e 53 95 16.0
e 53 257 12.0
e 53 200 22.0
e 53 14 19.0
e 55 130 1.0
e 57 62 1.0
e 57 73 6.0
e 58 34 11.0
e 58 230 8.0
e 58 26 10.0
e 58 246 3.0
e 59 170 14.0
e 59 75 39.0
e 59 20 69.0
e 59 142 32.0
e 59 141 43.0
e 59 178 37.0
e 59 89 47.0
e 59 270 17.0
e 59 155 31.0
e 59 67 59.0
e 59 119 78.0
e 59 139 58.0
e 59 26 77.0
e 59 227 88.0
e 59 37 56.0
e 59 278 10.0
e 59 165 37.0
e 59 140 49.0
e 59 33 49.0
e 59 15 93.0
e 59 35 91.0
e 59 176 47.0
e 59 283 76.0
e 59 28 18.0
e 59 13 68.0
e 59 284 45.0
e 60 100 12.0
e 60 55 11.0
e 60 316 10.0
e 63 46 2.0
e 64 122 23.0
e 64 11 6.0
e 64 240 34.0
e 64 294 5.0
e 64 248 5.0
e 66 110 5.0
e 66 95 1.0
e 68 65 2.0
e 69 275 4.0
e 73 244 1.0
e 74 273 1.0
e 75 311 23.0
e 75 217 75.0
e 75 249 82.0
e 75 145 43.0
e 75 157 64.0
e 75 88 84.0
e 75 114 18.0
e 75 161 87.0
e 75 129 19.0
e 75 82 22.0
e 75 303 29.0
e 75 248 2.0
e 75 29 50.0
e 75 149 79.0
e 75 245 50.0
e 75 308 95.0
e 75 284 41.0
e 75 279 75.0
e 75 219 12.0
e 75 306 53.0
e 75 37 18.0
e 75 296 7.0
e 75 174 84.0
e 75 119 70.0
e 75 116 93.0
e 75 113 99.0
e 77 220 93.0
e 77 161 17.0
e 77 303 71.0
e 77 280 24.0
e 77 124 75.0
e 77 238 25.0
e 77 110 81.0
e 77 59 41.0
e 77 203 12.0
e 77 269 69.0
e 77 190 4.0
e 77 279 39.0
e 77 142 29.0
e 77 189 40.0
e 77 254 66.0
e 77 226 51.0
e 77 174 70.0
e 77 67 72.0
e 77 60 27.0
e 77 173 100.0
e 77 237 63.0
e 77 14 49.0
e 77 84 21.0
e 77 180 61.0
e 77 104 27.0
e 77 256 98.0
e 77 181 81.0
e 79 284 1.0
e 79 119 56.0
e 80 168 9.0
e 81 21 1.0
e 81 292 70.0
e 82 100 7.0
e 82 86 11.0
e 82 306 51.0
e 85 202 4.0
e 85 192 1.0
e 86 75 11.0
e 86 196 12.0
e 86 19 11.0
e 87 45 1.0
e 88 211 65.0
e 88 270 36.0
e 88 223 24.0
e 88 159 16.0
e 88 272 20.0
e 88 39 23.0
e 88 109 42.0
e 88 298 25.0
e 88 120 9.0
e 88 314 32.0
e 88 312 7.0
e 88 296 47.0
e 88 308 6.0
e 91 239 5.0
e 92 104 11.0
e 92 148 1.0
e 92 147 7.0
e 92 311 5.0
e 93 229 3.0
e 93 51 96.0
e 94 273 2.0
e 94 103 7.0
e 94 81 11.0
e 94 35 8.0
e 94 78 16.0
e 94 18 1.0
e 96 301 25.0
e 96 76 34.0
e 96 4 34.0
e 96 143 21.0
e 96 124 85.0
e 96 264 42.0
e 96 117 17.0
e 96 160 16.0
e 96 243 8.0
e 96 309 15.0
e 96 152 39.0
e 96 135 97.0
e 96 30 6.0
e 96 259 9.0
e 96 79 93.0
e 96 316 4.0
e 96 116 67.0
e 96 300 30.0
e 96 16 95.0
e 96 154 12.0
e 96 97 70.0
e 96 272 88.0
e 96 317 76.0
e 96 86 43.0
e 96 218 96.0
e 96 303 71.0
e 96 202 38.0
e 98 8 6.0
e 98 269 5.0
e 99 77 22.0
e 99 124 19.0
e 99 254 4.0
e 101 311 5.0
e 101 277 1.0
e 102 103 7.0
e 102 313 3.0
e 103 305 11.0
e 103 119 32.0
e 104 57 10.0
e 104 70 23.0
e 104 225 24.0
e 104 155 75.0
e 105 221 1.0
e 108 174 59.0
e 108 5 7.0
e 108 189 61.0
e 108 260 28.0
e 108 205 4.0
e 108 71 34.0
e 108 38 52.0
e 108 93 14.0
e 108 207 63.0
e 108 297 63.0
e 108 70 61.0
e 108 285 7.0
e 108 254 17.0
e 108 299 14.0
e 108 261 57.0
e 108 157 87.0
e 108 301 64.0
e 108 31 59.0
e 108 231 27.0
e 108 88 68.0
e 108 176 74.0
e 108 223 54.0
e 108 15 100.0
e 108 72 58.0
e 108 298 96.0
e 108 34 93.0
e 108 86 76.0
e 112 52 8.0
e 112 107 17.0
e 112 313 24.0
e 112 316 22.0
e 112 152 23.0
e 112 3 5.0
e 112 271 20.0
e 115 318 50.0
e 116 81 9.0
e 116 179 18.0
e 116 77 60.0
e 116 293 16.0
e 117 236 49.0
e 117 12 58.0
e 117 125 77.0
e 117 311 87.0
e 117 207 78.0
e 117 188 72.0
e 117 198 62.0
e 117 160 79.0
e 117 202 52.0
e 117 80 37.0
e 117 231 69.0
e 117 121 3.0
e 117 51 84.0
e 117 164 18.0
e 117 182 95.0
e 117 36 92.0
e 117 50 67.0
e 117 97 58.0
e 117 278 24.0
e 117 283 27.0
e 117 22 7.0
e 117 14 42.0
e 117 6 40.0
e 118 34 22.0
e 118 98 5.0
e 118 146 17.0
e 118 213 11.0
e 118 125 23.0
e 118 302 8.0
e 118 296 24.0
e 119 56 73.0
e 119 256 60.0
e 119 110 65.0
e 119 248 53.0
e 119 158 7.0
e 119 182 50.0
e 119 125 21.0
e 119 8 75.0
e 119 277 12.0
e 119 35 52.0
e 119 303 53.0
e 119 241 25.0
e 119 23 61.0
e 119 246 64.0
e 119 53 25.0
e 119 133 31.0
e 119 279 20.0
e 119 138 13.0
e 119 286 18.0
e 119 11 35.0
e 119 41 34.0
e 120 253 2.0
e 123 58 37.0
e 123 287 56.0
e 123 53 86.0
e 123 167 48.0
e 123 160 1.0
e 123 116 36.0
e 123 209 29.0
e 123 299 92.0
e 123 312 38.0
e 123 270 38.0
e 123 11 42.0
e 123 35 70.0
e 123 39 7.0
e 123 216 14.0
e 123 78 55.0
e 123 127 94.0
e 123 18 98.0
e 123 148 76.0
e 123 155 19.0
e 123 56 44.0
e 123 195 82.0
e 123 31 67.0
e 123 161 96.0
e 123 85 14.0
e 123 170 23.0
e 123 163 56.0
e 124 61 51.0
e 124 298 84.0
e 124 135 42.0
e 124 215 78.0
e 124 100 4.0
e 124 253 68.0
e 124 198 53.0
e 124 156 45.0
e 124 194 78.0
e 124 213 30.0
e 124 165 7.0
e 124 196 28.0
e 124 299 5.0
e 124 153 37.0
e 124 76 29.0
e 124 55 69.0
e 124 223 56.0
e 124 266 88.0
e 124 166 10.0
e 124 2 88.0
e 124 171 45.0
e 124 201 16.0
e 124 80 24.0
e 124 101 45.0
e 126 283 99.0
e 126 265 63.0
e 126 97 75.0
e 126 207 72.0
e 126 49 26.0
e 126 103 27.0
e 126 110 44.0
e 126 69 96.0
e 126 189 84.0
e 126 8 53.0
e 126 61 99.0
e 126 192 23.0
e 126 80 6.0
e 126 279 33.0
e 126 89 49.0
e 126 159 64.0
e 126 24 23.0
e 126 215 73.0
e 126 276 47.0
e 126 127 38.0
e 126 305 65.0
e 126 193 41.0
e 126 191 53.0
e 126 11 14.0
e 126 143 13.0
e 126 209 20.0
e 126 241 63.0
e 128 185 5.0
e 128 56 4.0
e 131 172 13.0
e 131 29 83.0
e 131 111 71.0
e 131 19 78.0
e 131 304 24.0
e 131 61 74.0
e 131 20 99.0
e 131 317 2.0
e 131 101 28.0
e 131 86 41.0
e 131 125 2.0
e 131 99 51.0
e 131 240 24.0
e 131 98 76.0
e 131 72 4.0
e 131 58 54.0
e 131 287 17.0
e 131 190 87.0
e 131 93 34.0
e 131 59 82.0
e 131 201 32.0
e 131 316 44.0
e 131 308 91.0
e 131 52 43.0
e 131 27 90.0
e 131 218 84.0
e 132 22 1.0
e 132 180 10.0
e 132 293 1.0
e 133 194 7.0
e 133 203 11.0
e 134 23 11.0
e 134 169 1.0
e 134 112 5.0
e 134 251 7.0
e 136 227 69.0
e 136 238 91.0
e 136 71 62.0
e 136 147 14.0
e 136 98 99.0
e 136 63 95.0
e 136 271 41.0
e 136 307 15.0
e 136 235 31.0
e 136 41 34.0
e 136 52 61.0
e 136 164 76.0
e 136 57 73.0
e 136 70 18.0
e 136 300 41.0
e 136 145 2.0
e 136 178 95.0
e 136 166 41.0
e 136 17 11.0
e 136 109 79.0
e 136 295 39.0
e 136 266 38.0
e 136 30 89.0
e 136 31 31.0
e 136 280 54.0
e 136 167 42.0
e 136 95 19.0
e 137 108 24.0
e 137 12 10.0
e 137 85 56.0
e 137 271 52.0
e 137 219 48.0
e 137 266 100.0
e 137 220 37.0
e 137 62 25.0
e 137 1 13.0
e 137 160 17.0
e 137 224 41.0
e 137 249 34.0
e 137 34 76.0
e 137 99 57.0
e 137 209 6.0
e 137 181 33.0
e 137 136 94.0
e 137 265 73.0
e 137 312 36.0
e 137 146 36.0
e 137 300 3.0
e 137 89 40.0
e 137 126 56.0
e 137 241 23.0
e 137 70 15.0
e 137 37 55.0
e 139 280 3.0
e 143 285 18.0
e 143 259 27.0
e 143 228 18.0
e 143 17 9.0
e 143 242 16.0
e 150 233 31.0
e 150 239 3.0
e 150 257 78.0
e 150 195 62.0
e 150 133 67.0
e 150 156 35.0
e 150 280 82.0
e 150 237 75.0
e 150 141 4.0
e 150 298 19.0
e 150 33 56.0
e 150 12 74.0
e 150 171 81.0
e 150 209 24.0
e 150 89 45.0
e 150 219 51.0
e 150 1 74.0
e 150 204 22.0
e 150 117 50.0
e 150 192 43.0
e 150 165 26.0
e 150 135 71.0
e 150 292 16.0
e 150 218 59.0
e 150 173 43.0
e 150 186 25.0
e 150 80 73.0
e 155 51 31.0
e 155 279 2.0
e 155 250 72.0
e 155 176 27.0
e 155 91 87.0
e 155 96 36.0
e 155 234 100.0
e 155 86 13.0
e 155 159 85.0
e 155 115 11.0
e 155 186 83.0
e 155 227 38.0
e 155 58 68.0
e 155 301 13.0
e 155 34 40.0
e 155 32 24.0
e 155 109 40.0
e 155 317 44.0
e 155 101 61.0
e 155 203 51.0
e 155 66 30.0
e 155 230 36.0
e 162 206 2.0
e 164 298 11.0
e 164 137 48.0
e 164 236 18.0
e 164 290 42.0
e 164 143 84.0
e 164 110 49.0
e 164 178 89.0
e 164 301 95.0
e 164 57 71.0
e 164 269 64.0
e 164 252 52.0
e 164 256 60.0
e 164 157 80.0
e 164 224 82.0
e 164 15 25.0
e 164 253 40.0
e 164 128 33.0
e 164 206 19.0
e 164 147 61.0
e 164 291 43.0
e 164 23 50.0
e 164 185 54.0
e 164 11 39.0
e 164 177 94.0
e 164 5 93.0
e 168 59 76.0
e 168 138 1.0
e 175 23 2.0
e 175 114 4.0
e 178 68 92.0
e 178 60 12.0
e 178 254 90.0
e 178 147 39.0
e 178 170 50.0
e 178 298 84.0
e 178 61 26.0
e 178 172 67.0
e 178 244 11.0
e 178 66 63.0
e 178 191 94.0
e 178 268 21.0
e 178 10 16.0
e 178 23 84.0
e 178 227 36.0
e 178 24 1.0
e 178 146 96.0
e 178 139 87.0
e 178 232 26.0
e 178 118 52.0
e 178 22 85.0
e 178 101 70.0
e 178 173 81.0
e 181 117 58.0
e 182 90 98.0
e 182 236 91.0
e 182 247 97.0
e 182 228 53.0
e 182 254 35.0
e 182 47 48.0
e 182 62 3.0
e 182 211 12.0
e 182 14 17.0
e 182 120 22.0
e 182 284 90.0
e 182 78 47.0
e 182 163 40.0
e 182 132 55.0
e 182 153 44.0
e 182 97 83.0
e 182 37 13.0
e 182 6 62.0
e 182 133 7.0
e 182 259 56.0
e 182 48 97.0
e 182 80 10.0
e 184 307 57.0
e 187 115 15.0
e 187 298 20.0
e 187 175 19.0
e 187 93 8.0
e 187 278 7.0
e 187 2 5.0
e 187 125 19.0
e 195 256 22.0
e 195 269 86.0
e 195 29 43.0
e 195 54 43.0
e 195 249 64.0
e 195 275 79.0
e 195 5 74.0
e 195 98 69.0
e 195 293 15.0
e 195 214 67.0
e 195 50 73.0
e 195 292 78.0
e 195 178 50.0
e 195 97 63.0
e 195 100 40.0
e 195 104 74.0
e 195 58 75.0
e 195 265 20.0
e 195 59 88.0
e 195 110 77.0
e 195 303 71.0
e 195 14 11.0
e 195 85 100.0
e 195 268 15.0
e 195 253 64.0
e 207 144 86.0
e 207 123 75.0
e 207 250 80.0
e 207 115 44.0
e 207 114 85.0
e 207 55 3.0
e 207 163 15.0
e 207 279 68.0
e 207 136 89.0
e 207 171 79.0
e 207 10 38.0
e 207 146 80.0
e 207 288 31.0
e 207 60 13.0
e 207 310 51.0
e 207 172 99.0
e 207 226 59.0
e 207 187 8.0
e 207 292 72.0
e 207 267 51.0
e 207 200 17.0
e 207 39 97.0
e 207 120 89.0
e 207 189 40.0
e 208 154 3.0
e 208 186 1.0
e 208 128 7.0
e 208 118 12.0
e 210 170 7.0
e 210 308 9.0
e 210 259 16.0
e 210 264 1.0
e 211 145 75.0
e 211 25 24.0
e 211 143 11.0
e 211 3 87.0
e 211 85 51.0
e 211 5 12.0
e 211 32 1.0
e 211 19 30.0
e 211 134 9.0
e 211 138 3.0
e 211 59 85.0
e 211 49 76.0
e 211 225 13.0
e 211 264 24.0
e 211 183 45.0
e 211 135 51.0
e 211 86 21.0
e 211 273 42.0
e 211 50 41.0
e 211 151 81.0
e 211 215 78.0
e 211 68 70.0
e 211 185 31.0
e 211 238 2.0
e 211 77 67.0
e 212 143 4.0
e 216 1 37.0
e 216 167 86.0
e 216 266 35.0
e 216 124 5.0
e 216 207 87.0
e 216 314 12.0
e 216 59 35.0
e 216 0 98.0
e 216 55 58.0
e 216 161 87.0
e 216 142 83.0
e 216 299 87.0
e 216 16 15.0
e 216 311 55.0
e 216 47 31.0
e 216 75 68.0
e 216 259 97.0
e 216 129 77.0
e 216 99 85.0
e 216 17 37.0
e 216 94 36.0
e 216 176 36.0
e 216 218 20.0
e 216 21 41.0
e 216 50 18.0
e 216 139 51.0
e 222 94 24.0
e 223 182 48.0
e 223 270 18.0
e 223 160 16.0
e 223 97 19.0
e 225 182 2.0
e 225 40 4.0
e 225 244 10.0
e 234 214 18.0
e 234 32 16.0
e 234 96 74.0
e 234 44 9.0
e 235 102 2.0
e 236 172 2.0
e 240 293 29.0
e 240 48 50.0
e 240 261 63.0
e 240 268 32.0
e 240 113 58.0
e 240 20 4.0
e 240 234 10.0
e 240 105 89.0
e 240 101 5.0
e 240 191 43.0
e 240 296 58.0
e 240 49 87.0
e 240 39 84.0
e 240 248 7.0
e 240 148 6.0
e 240 144 15.0
e 240 204 34.0
e 240 65 15.0
e 240 62 97.0
e 240 63 68.0
e 240 85 32.0
e 240 55 68.0
e 240 107 74.0
e 240 108 20.0
e 240 29 34.0
e 243 191 11.0
e 243 315 7.0
e 247 53 9.0
e 247 220 36.0
e 247 226 18.0
e 247 91 47.0
e 247 214 41.0
e 247 269 38.0
e 247 248 43.0
e 247 202 25.0
e 247 75 69.0
e 247 201 25.0
e 247 25 38.0
e 247 275 10.0
e 247 253 37.0
e 248 54 10.0
e 248 127 8.0
e 248 18 36.0
e 248 58 39.0
e 248 265 2.0
e 248 266 23.0
e 248 89 40.0
e 248 150 50.0
e 255 46 8.0
e 255 76 7.0
e 255 48 9.0
e 255 164 45.0
e 256 78 10.0
e 256 233 17.0
e 256 2 23.0
e 256 121 55.0
e 256 315 63.0
e 256 0 7.0
e 256 26 33.0
e 256 234 63.0
e 256 32 17.0
e 256 301 34.0
e 256 81 87.0
e 256 27 48.0
e 256 3 63.0
e 256 110 75.0
e 256 304 68.0
e 256 153 17.0
e 256 265 24.0
e 256 42 65.0
e 256 208 14.0
e 256 134 60.0
e 256 143 82.0
e 259 254 16.0
e 259 84 78.0
e 259 20 97.0
e 259 13 53.0
e 259 131 100.0
e 259 213 41.0
e 259 3 72.0
e 259 241 14.0
e 259 183 16.0
e 259 47 59.0
e 259 144 4.0
e 259 103 92.0
e 259 148 32.0
e 259 60 16.0
e 259 45 67.0
e 259 227 53.0
e 259 99 94.0
e 259 195 75.0
e 259 37 24.0
e 259 64 2.0
e 259 286 80.0
e 259 288 17.0
e 260 290 54.0
e 260 212 48.0
e 260 303 60.0
e 260 0 8.0
e 260 247 3.0
e 260 52 10.0
e 260 255 2.0
e 260 270 95.0
e 260 68 59.0
e 260 216 89.0
e 260 185 14.0
e 260 214 35.0
e 260 17 64.0
e 260 148 67.0
e 260 129 16.0
e 260 123 67.0
e 260 38 32.0
e 260 315 25.0
e 260 86 56.0
e 260 171 25.0
e 260 93 35.0
e 260 272 27.0
e 260 106 23.0
e 260 237 95.0
e 260 242 5.0
e 263 268 11.0
e 263 140 5.0
e 263 189 8.0
e 263 130 11.0
e 274 154 25.0
e 274 119 50.0
e 274 75 24.0
e 274 96 20.0
e 274 135 7.0
e 274 283 98.0
e 274 58 4.0
e 274 10 46.0
e 274 33 35.0
e 274 247 65.0
e 274 148 60.0
e 274 55 20.0
e 274 129 8.0
e 274 37 51.0
e 274 147 68.0
e 274 223 70.0
e 274 78 46.0
e 274 255 42.0
e 274 141 69.0
e 274 70 67.0
e 274 228 89.0
e 274 187 5.0
e 274 268 95.0
e 274 64 28.0
e 274 108 10.0
e 274 113 70.0
e 274 216 24.0
e 276 54 82.0
e 276 62 37.0
e 276 201 84.0
e 276 306 34.0
e 276 79 94.0
e 276 33 51.0
e 276 173 86.0
e 276 63 52.0
e 276 206 97.0
e 276 189 91.0
e 276 234 15.0
e 276 175 96.0
e 276 51 74.0
e 276 232 6.0
e 276 277 39.0
e 276 134 36.0
e 276 156 23.0
e 276 1 26.0
e 276 60 47.0
e 276 135 30.0
e 276 153 5.0
e 276 161 23.0
e 276 20 44.0
e 276 44 10.0
e 276 262 25.0
e 276 215 38.0
e 281 251 1.0
e 282 74 1.0
e 283 65 1.0
e 283 5 5.0
e 290 16 39.0
e 290 264 5.0
e 291 289 23.0
e 291 63 97.0
e 291 283 1.0
e 291 42 31.0
e 291 166 74.0
e 291 254 76.0
e 291 96 46.0
e 291 120 76.0
e 291 106 71.0
e 291 15 74.0
e 291 85 70.0
e 291 302 29.0
e 291 56 15.0
e 291 147 70.0
e 291 87 68.0
e 291 304 53.0
e 291 241 75.0
e 291 187 32.0
e 291 154 13.0
e 291 269 23.0
e 291 216 26.0
e 291 202 47.0
e 291 76 46.0
e 291 149 91.0
e 291 121 2.0
e 291 195 58.0
e 292 300 30.0
e 292 193 36.0
e 292 252 86.0
e 292 120 29.0
e 292 196 55.0
e 292 2 40.0
e 292 41 40.0
e 292 197 33.0
e 292 95 44.0
e 292 149 27.0
e 292 133 5.0
e 292 151 47.0
e 292 56 29.0
e 292 32 83.0
e 292 241 72.0
e 292 121 65.0
e 292 105 48.0
e 292 106 20.0
e 292 51 100.0
e 292 229 61.0
e 292 260 2.0
e 292 208 6.0
e 294 284 2.0
e 299 39 14.0
e 300 63 18.0
e 300 256 26.0
e 300 162 9.0
e 305 257 19.0
e 305 62 17.0
e 305 263 11.0
e 305 210 3.0
e 305 124 50.0
e 306 315 67.0
e 306 234 81.0
e 306 114 87.0
e 306 202 45.0
e 306 126 4.0
e 306 186 45.0
e 306 205 5.0
e 306 235 12.0
e 306 316 25.0
e 306 229 85.0
e 306 60 50.0
e 306 192 3.0
e 306 4 70.0
e 306 9 90.0
e 306 280 24.0
e 306 56 1.0
e 306 176 56.0
e 306 218 58.0
e 306 83 87.0
e 306 129 32.0
e 306 260 61.0
e 306 7 82.0
e 306 30 39.0
e 307 124 17.0
e 307 57 20.0
e 307 36 74.0
e 307 268 42.0
e 307 285 3.0
e 307 62 44.0
e 307 139 87.0
e 307 80 34.0
e 307 122 41.0
e 307 65 86.0
e 307 314 11.0
e 307 197 62.0
e 307 34 72.0
e 307 72 52.0
e 307 69 62.0
e 307 260 39.0
e 307 87 26.0
e 307 214 46.0
e 307 12 4.0
e 307 288 26.0
e 307 199 33.0
e 307 189 39.0
e 307 231 13.0
e 307 40 8.0
e 309 66 95.0
e 309 1 21.0
e 309 48 22.0
e 309 192 9.0
e 309 186 45.0
e 309 187 90.0
e 309 89 95.0
e 309 167 3.0
e 309 237 79.0
e 309 295 43.0
e 309 212 26.0
e 309 286 37.0
e 309 287 80.0
e 309 296 68.0
e 309 25 58.0
e 309 193 79.0
e 309 257 63.0
e 309 75 79.0
e 309 243 90.0
e 309 33 44.0
e 309 71 18.0
e 309 307 16.0
e 309 135 36.0
e 309 168 95.0
e 309 231 92.0
e 310 160 8.0
e 310 7 1.0
e 310 286 10.0
e 317 132 93.0
e 317 103 23.0
e 317 145 84.0
e 317 18 82.0
e 317 49 73.0
e 317 21 82.0
e 317 254 10.0
e 317 87 42.0
e 317 214 14.0
e 317 282 24.0
e 317 206 18.0
e 317 297 31.0
e 317 218 98.0
e 317 262 30.0
e 317 242 78.0
e 317 46 79.0
e 317 166 94.0
e 317 246 19.0
e 317 63 58.0
e 317 64 72.0
e 317 231 23.0
e 317 272 47.0
e 317 283 58.0
e 318 20 30.0
e 318 149 10.0
e 318 283 60.0
e 318 64 40.0
e 318 208 19.0
e 318 26 24.0
e 318 259 80.0
e 318 79 4.0
e 318 186 69.0
e 318 263 52.0
e 318 165 95.0
e 318 301 17.0
e 318 235 55.0
e 318 176 10.0
e 318 66 78.0
e 318 265 69.0
e 318 44 11.0
e 318 160 83.0
e 318 10 97.0
e 318 299 31.0
e 318 42 86.0
e 318 113 17.0
e 318 260 76.0
e 318 277 90.0
e 318 276 9.0
e 318 289 89.0
e 319 276 16.0
